c instance by G2
c solution = 1010101100100010111001000
c Known solution cost is 1221 
p cnf 25 30
w 3 31 87 22 94 47 24 37 44 82 3 80 3 27 13 90 48 89 6 2 52 99 65 91 82
7 12 24 0
9 -20 -18 0
-11 -10 16 0
6 -18 -21 0
-11 13 8 0
13 15 6 0
24 9 -13 0
-1 -25 9 0
-19 20 17 0
7 10 -25 0
-9 21 13 0
-2 14 12 0
14 19 6 0
21 -5 22 0
6 16 18 0
-12 -22 -18 0
-17 -16 -3 0
-22 16 3 0
17 9 1 0
-7 -22 5 0
-1 25 -24 0
-4 10 -19 0
-17 11 -3 0
-9 1 11 0
-5 -7 -24 0
1 -15 16 0
-6 21 14 0
24 -23 -3 0
-14 -5 -1 0
-13 4 -17 0
